objective value:                   0.0015093081050004
x_1_2                                               1 	(obj:0)
x_2_2                                               1 	(obj:0)
x_3_1                                               1 	(obj:0)
x_4_1                                               1 	(obj:0)
x_5_3                                               1 	(obj:0)
x_6_2                                               1 	(obj:0)
x_7_3                                               1 	(obj:0)
x_8_1                                               1 	(obj:0)
x_9_1                                               1 	(obj:0)
x_10_3                                              1 	(obj:0)
x_11_2                                              1 	(obj:0)
x_12_3                                              1 	(obj:0)
x_13_2                                              1 	(obj:0)
x_14_3                                              1 	(obj:0)
x_15_1                                              1 	(obj:0)
x_16_1                                              1 	(obj:0)
x_17_2                                              1 	(obj:0)
x_18_1                                              1 	(obj:0)
x_19_2                                              1 	(obj:0)
x_20_2                                              1 	(obj:0)
ind_1                                               1 	(obj:0)
abs_1_3                                             1 	(obj:0)
ind_2                                               1 	(obj:0)
abs_2_1                                             1 	(obj:0)
ind_3                                               1 	(obj:0)
abs_3_2                                             1 	(obj:0)
epsI                               0.0015093081050004 	(obj:1)
prodt_x_19_2_t_x_20_2_coh_2                         1 	(obj:0)
prodt_x_1_2_t_x_4_1_more_coh_1           0.1365659842 	(obj:0)
prodt_x_3_1_t_x_5_1_more_coh_1           2.1081327977 	(obj:0)
prodt_x_4_1_t_x_5_1_more_coh_1          2.86524802725 	(obj:0)
prodt_x_8_1_t_x_11_1_more_coh_1         2.08639203775 	(obj:0)
prodt_x_9_1_t_x_14_1_more_coh_1          1.2626146314 	(obj:0)
prodt_x_15_1_t_x_16_1_more_coh_1     1.02321393736667 	(obj:0)
prodt_x_16_1_t_x_17_1_more_coh_1  0.00188571199999998 	(obj:0)
prodt_x_1_2_t_x_4_2_more_coh_2          2.35341838085 	(obj:0)
prodt_x_2_2_t_x_3_2_more_coh_2           5.0383570051 	(obj:0)
prodt_x_6_2_t_x_7_2_more_coh_2           2.7389226924 	(obj:0)
prodt_x_11_2_t_x_12_2_more_coh_2         3.2841300446 	(obj:0)
prodt_x_13_2_t_x_15_2_more_coh_2         1.2823774458 	(obj:0)
prodt_x_17_2_t_x_18_2_more_coh_2         1.1911641286 	(obj:0)
prodt_x_5_3_t_x_6_3_more_coh_3          1.01568373775 	(obj:0)
prodt_x_7_3_t_x_9_3_more_coh_3          1.77276566565 	(obj:0)
prodt_x_10_3_t_x_11_3_more_coh_3         1.1853195283 	(obj:0)
prodt_x_12_3_t_x_13_3_more_coh_3  0.000700213199998911 	(obj:0)
prodt_x_1_2_t_x_19_2_more_irrev1_2_1    -1.94970650999999 	(obj:0)
prodt_x_2_2_t_x_5_1_more_irrev1_2_1          -1.82885261 	(obj:0)
prodt_x_3_1_t_x_6_2_more_irrev1_2_1   -0.802879550000116 	(obj:0)
prodt_x_4_1_t_x_5_2_more_irrev1_2_1   -0.602117979999952 	(obj:0)
prodt_x_6_2_t_x_7_1_more_irrev1_2_1    -1.70066995999998 	(obj:0)
prodt_x_8_1_t_x_12_2_more_irrev1_2_1    -3.05258232000002 	(obj:0)
prodt_x_9_1_t_x_11_2_more_irrev1_2_1          -1.71781092 	(obj:0)
prodt_x_11_2_t_x_12_1_more_irrev1_2_1          -1.23027673 	(obj:0)
prodt_x_13_2_t_x_15_1_more_irrev1_2_1          -0.92866839 	(obj:0)
prodt_x_15_1_t_x_17_2_more_irrev1_2_1   -0.930085539999998 	(obj:0)
prodt_x_16_1_t_x_18_2_more_irrev1_2_1   -0.506910879999999 	(obj:0)
prodt_x_17_2_t_x_20_1_more_irrev1_2_1           -0.3800445 	(obj:0)
prodt_x_18_1_t_x_20_2_more_irrev1_2_1   -0.832742509999996 	(obj:0)
prodt_x_1_2_t_x_5_2_more_irrev2_2_1     1.94970650999999 	(obj:0)
prodt_x_2_2_t_x_3_1_more_irrev2_2_1           1.82885261 	(obj:0)
prodt_x_3_1_t_x_6_2_more_irrev2_2_1    0.802879549999999 	(obj:0)
prodt_x_4_1_t_x_5_2_more_irrev2_2_1    0.602117979999957 	(obj:0)
prodt_x_6_2_t_x_7_1_more_irrev2_2_1     1.70066995999998 	(obj:0)
prodt_x_8_1_t_x_9_2_more_irrev2_2_1     3.05258232000001 	(obj:0)
prodt_x_9_1_t_x_11_2_more_irrev2_2_1           1.71781092 	(obj:0)
prodt_x_11_2_t_x_13_1_more_irrev2_2_1           1.23027673 	(obj:0)
prodt_x_13_2_t_x_17_1_more_irrev2_2_1    0.928668389999999 	(obj:0)
prodt_x_15_1_t_x_20_2_more_irrev2_2_1    0.930085539999998 	(obj:0)
prodt_x_16_1_t_x_20_2_more_irrev2_2_1    0.506910879999999 	(obj:0)
prodt_x_17_2_t_x_18_1_more_irrev2_2_1            0.3800445 	(obj:0)
prodt_x_18_1_t_x_19_2_more_irrev2_2_1    0.832742509999996 	(obj:0)
prodt_x_1_2_t_x_19_3_more_irrev1_3_1     1.94988751999999 	(obj:0)
prodt_x_3_1_t_x_6_3_more_irrev1_3_1           2.66605123 	(obj:0)
prodt_x_4_1_t_x_5_3_more_irrev1_3_1     3.84653247000002 	(obj:0)
prodt_x_5_3_t_x_8_1_more_irrev1_3_1           1.26217105 	(obj:0)
prodt_x_7_3_t_x_10_1_more_irrev1_3_1           1.10847706 	(obj:0)
prodt_x_8_1_t_x_12_3_more_irrev1_3_1    0.709188299999999 	(obj:0)
prodt_x_9_1_t_x_11_3_more_irrev1_3_1    0.536182320000004 	(obj:0)
prodt_x_10_3_t_x_11_1_more_irrev1_3_1    0.357292089999999 	(obj:0)
prodt_x_12_3_t_x_18_1_more_irrev1_3_1           1.84279648 	(obj:0)
prodt_x_14_3_t_x_16_1_more_irrev1_3_1     2.76735665000001 	(obj:0)
prodt_x_1_2_t_x_5_3_more_irrev2_3_1    -1.94988751999999 	(obj:0)
prodt_x_3_1_t_x_6_3_more_irrev2_3_1    -2.66605123000001 	(obj:0)
prodt_x_4_1_t_x_5_3_more_irrev2_3_1    -3.84653247000002 	(obj:0)
prodt_x_5_3_t_x_8_1_more_irrev2_3_1          -1.26217105 	(obj:0)
prodt_x_7_3_t_x_10_1_more_irrev2_3_1          -1.10847706 	(obj:0)
prodt_x_8_1_t_x_9_3_more_irrev2_3_1   -0.709188299999999 	(obj:0)
prodt_x_9_1_t_x_11_3_more_irrev2_3_1   -0.536182320000005 	(obj:0)
prodt_x_10_3_t_x_12_1_more_irrev2_3_1          -0.35729209 	(obj:0)
prodt_x_12_3_t_x_13_1_more_irrev2_3_1          -1.84279648 	(obj:0)
prodt_x_14_3_t_x_15_1_more_irrev2_3_1    -2.76735665000001 	(obj:0)
prodt_x_1_2_t_x_19_3_more_irrev1_3_2    -1.94988751999999 	(obj:0)
prodt_x_2_2_t_x_3_3_more_irrev1_3_2          -1.44529135 	(obj:0)
prodt_x_5_3_t_x_8_2_more_irrev1_3_2          -3.48782067 	(obj:0)
prodt_x_6_2_t_x_7_3_more_irrev1_3_2   -0.818078870000005 	(obj:0)
prodt_x_7_3_t_x_10_2_more_irrev1_3_2          -1.39691008 	(obj:0)
prodt_x_10_3_t_x_11_2_more_irrev1_3_2          -2.15867138 	(obj:0)
prodt_x_11_2_t_x_14_3_more_irrev1_3_2   -0.913995909999999 	(obj:0)
prodt_x_12_3_t_x_18_2_more_irrev1_3_2    -1.60633378000001 	(obj:0)
prodt_x_13_2_t_x_14_3_more_irrev1_3_2          -0.31278061 	(obj:0)
prodt_x_14_3_t_x_16_2_more_irrev1_3_2    -1.00866385999999 	(obj:0)
prodt_x_1_2_t_x_5_3_more_irrev2_3_2     1.94988751999999 	(obj:0)
prodt_x_2_2_t_x_4_3_more_irrev2_3_2           1.44529135 	(obj:0)
prodt_x_5_3_t_x_8_2_more_irrev2_3_2           3.48782067 	(obj:0)
prodt_x_6_2_t_x_7_3_more_irrev2_3_2    0.818078870000005 	(obj:0)
prodt_x_7_3_t_x_10_2_more_irrev2_3_2           1.39691008 	(obj:0)
prodt_x_10_3_t_x_12_2_more_irrev2_3_2           2.15867138 	(obj:0)
prodt_x_11_2_t_x_13_3_more_irrev2_3_2    0.913995909999999 	(obj:0)
prodt_x_12_3_t_x_13_2_more_irrev2_3_2     1.60633378000001 	(obj:0)
prodt_x_13_2_t_x_14_3_more_irrev2_3_2           0.31278061 	(obj:0)
prodt_x_14_3_t_x_15_2_more_irrev2_3_2     1.00866385999999 	(obj:0)
SCIP Status        : solving was interrupted [time limit reached]
Total Time         :    3600.00
  solving          :    3600.00
  presolving       :       0.15 (included in solving)
  reading          :       0.00
  copying          :       2.10 (198 #copies) (minimal 0.00, maximal 0.02, average 0.01)
Original Problem   :
  Problem name     : ../instances/Pot6Cycle/Pot6Cycle_T_20B_1t.txt.spa
  Variables        : 101 (100 binary, 0 integer, 0 implicit integer, 1 continuous)
  Constraints      : 193 initial, 193 maximal
  Objective sense  : maximize
Presolved Problem  :
  Problem name     : t_../instances/Pot6Cycle/Pot6Cycle_T_20B_1t.txt.spa
  Variables        : 590 (92 binary, 0 integer, 16 implicit integer, 482 continuous)
  Constraints      : 2039 initial, 6458 maximal
Presolvers         :   ExecTime  SetupTime  Calls  FixedVars   AggrVars   ChgTypes  ChgBounds   AddHoles    DelCons    AddCons   ChgSides   ChgCoefs
  boundshift       :       0.00       0.00      0          0          0          0          0          0          0          0          0          0
  components       :       0.00       0.00      1          0          0          0          0          0          0          0          0          0
  convertinttobin  :       0.00       0.00      0          0          0          0          0          0          0          0          0          0
  domcol           :       0.00       0.00      1          0          0          0          0          0          0          0          0          0
  dualagg          :       0.00       0.00      0          0          0          0          0          0          0          0          0          0
  dualinfer        :       0.00       0.00      0          0          0          0          0          0          0          0          0          0
  gateextraction   :       0.00       0.00      3          0          0          0          0          0        108         34          0          0
  implfree         :       0.00       0.00      0          0          0          0          0          0          0          0          0          0
  implics          :       0.00       0.00      4          0          0          0          0          0          0          0          0          0
  inttobinary      :       0.00       0.00      0          0          0          0          0          0          0          0          0          0
  redvub           :       0.00       0.00      0          0          0          0          0          0          0          0          0          0
  stuffing         :       0.01       0.00      1          0          0          0          0          0          0          0          0          0
  trivial          :       0.00       0.00      7          0          0          0          0          0          0          0          0          0
  tworowbnd        :       0.00       0.00      0          0          0          0          0          0          0          0          0          0
  dualfix          :       0.00       0.00      7          4          0          0          0          0          0          0          0          0
  genvbounds       :       0.00       0.00      0          0          0          0          0          0          0          0          0          0
  probing          :       0.09       0.00      1          0          0          0          0          0          0          0          0          0
  pseudoobj        :       0.00       0.00      0          0          0          0          0          0          0          0          0          0
  varbound         :       0.00       0.00      9          0          0          0          0          0         28         28          0          0
  setppc           :       0.01       0.00     12          0          0          0          0          0          0          0          0          0
  and              :       0.01       0.00      4          0         12          0          0          0         12          0          0          0
  linear           :       0.02       0.00      9          3          1          0          4          0          7          0         12         12
  logicor          :       0.00       0.00      7          0          0          0          0          0          0          0          0          0
  bounddisjunction :       0.00       0.00      0          0          0          0          0          0          0          0          0          0
  quadratic        :       0.01       0.00      2          0          0          0          0          0          0       1939          0          0
  root node        :          -          -      -          1          -          -         82          -          -          -          -          -
Constraints        :     Number  MaxNumber  #Separate #Propagate    #EnfoLP    #EnfoPS     #Check   #ResProp    Cutoffs    DomReds       Cuts    Applied      Conss   Children
  integral         :          0          0          0          0    1966063          0     485182          0          0      42498          0          0        363    3846400
  varbound         :        893        893         92   11538425      39218          1      66743    5389862     183512   72243994          0          0          0          0
  setppc           :        110        110         92   11354893      39217          1       6366    3980383      48671    5106555         12          1          0          0
  and              :         22         22     111039     587177       7665          0       5599     392926          5      35321       3695       3674          0          0
  linear           :        979        979         92   11306241      33759          0       5244    3636216     496859  121165758    1540570    1540377          0          0
  logicor          :         35+       864         89    2980788          0          0          0     149563       6705     161240          0          0          0          0
  bounddisjunction :          0+      3951          0    6170860          0          0          0     939672      33501    7486423          0          0          0          0
  countsols        :          0          0          0          0          5          1     418317          0          0          0          0          0          0          0
Constraint Timings :  TotalTime  SetupTime   Separate  Propagate     EnfoLP     EnfoPS      Check    ResProp    SB-Prop
  integral         :      22.29       0.00       0.00       0.00      22.27       0.00       0.02       0.00       0.00
  varbound         :      87.74       0.00       0.00      85.70       0.21       0.00       0.57       1.10       0.16
  setppc           :      56.30       0.00       0.00      55.26       0.01       0.00       0.02       0.91       0.10
  and              :       0.33       0.00       0.06       0.10       0.01       0.00       0.01       0.14       0.01
  linear           :     253.40       0.00       0.01     248.52       1.24       0.00       0.04       3.19       0.40
  logicor          :       7.50       0.00       0.00       7.41       0.00       0.00       0.00       0.08       0.01
  bounddisjunction :      80.10       0.00       0.00      79.72       0.00       0.00       0.00       0.32       0.06
  countsols        :       0.00       0.00       0.00       0.00       0.00       0.00       0.00       0.00       0.00
Propagators        : #Propagate   #ResProp    Cutoffs    DomReds
  dualfix          :          2          0          0          0
  genvbounds       :          0          0          0          0
  obbt             :          0          0          0          0
  probing          :          0          0          0          0
  pseudoobj        :   12119703       8569         86      31328
  redcost          :    4289832          0        234     568044
  rootredcost      :          9          0          0          3
  vbounds          :   13496557       1113          6      38547
Propagator Timings :  TotalTime  SetupTime   Presolve  Propagate    ResProp    SB-Prop
  dualfix          :       0.00       0.00       0.00       0.00       0.00       0.00
  genvbounds       :       2.21       0.00       0.00       2.21       0.00       0.00
  obbt             :       0.00       0.00       0.00       0.00       0.00       0.00
  probing          :       0.09       0.00       0.09       0.00       0.00       0.00
  pseudoobj        :       5.34       0.00       0.00       5.33       0.00       0.01
  redcost          :      28.43       0.00       0.00      28.43       0.00       0.00
  rootredcost      :       3.20       0.00       0.00       3.19       0.00       0.01
  vbounds          :       8.58       0.00       0.00       8.58       0.00       0.00
Conflict Analysis  :       Time      Calls    Success    DomReds  Conflicts   Literals    Reconvs ReconvLits   LP Iters
  propagation      :      18.60     272641     272165          -    4151375       41.0      41300       44.7          -
  infeasible LP    :       5.44      43574      33521          -     469675       37.2          6        7.2          0
  bound exceed. LP :       0.00          0          0          -          0        0.0          0        0.0          0
  strong branching :       0.00          0          0          -          0        0.0          0        0.0          0
  pseudo solution  :       0.00          0          0          -          0        0.0          0        0.0          -
  applied globally :       4.87          -          -          0     431711       21.2          -          -          -
  applied locally  :          -          -          -          0      15919       32.4          -          -          -
Separators         :   ExecTime  SetupTime      Calls    Cutoffs    DomReds       Cuts    Applied      Conss
  cut pool         :       0.00                    90          -          -       1259          -          -    (maximal pool size: 798)
  cgmip            :       0.00       0.00          0          0          0          0          0          0
  clique           :       0.02       0.00         91          0          0         41         37          0
  closecuts        :       0.00       0.00          0          0          0          0          0          0
  cmir             :       0.04       0.00         10          0          0        269        230          0
  disjunctive      :       0.00       0.00          0          0          0          0          0          0
  eccuts           :       0.00       0.00          0          0          0          0          0          0
  flowcover        :       0.27       0.00         15          0          0        250         29          0
  gomory           :       0.10       0.00         10          0          0          3          3          0
  impliedbounds    :       0.00       0.00         91          0          0        701        144          0
  intobj           :       0.00       0.00          0          0          0          0          0          0
  mcf              :       0.00       0.00          1          0          0          0          0          0
  oddcycle         :       0.00       0.00          0          0          0          0          0          0
  rapidlearning    :       0.00       0.00          0          0          0          0          0          0
  strongcg         :       0.13       0.00         20          0          0         23          4          0
  zerohalf         :       0.00       0.00          0          0          0          0          0          0
Pricers            :   ExecTime  SetupTime      Calls       Vars
  problem variables:       0.00          -          0          0
Branching Rules    :   ExecTime  SetupTime   BranchLP  BranchExt   BranchPS    Cutoffs    DomReds       Cuts      Conss   Children
  allfullstrong    :       0.00       0.00          0          0          0          0          0          0          0          0
  cloud            :       0.00       0.00          0          0          0          0          0          0          0          0
  distribution     :       0.00       0.00          0          0          0          0          0          0          0          0
  fullstrong       :       0.00       0.00          0          0          0          0          0          0          0          0
  inference        :       0.00       0.00          0          0          1          0          0          0          0          2
  leastinf         :       0.00       0.00          0          0          0          0          0          0          0          0
  mostinf          :       0.00       0.00          0          0          0          0          0          0          0          0
  multaggr         :       0.00       0.00          0          0          0          0          0          0          0          0
  nodereopt        :       0.00       0.00          0          0          0          0          0          0          0          0
  pscost           :       0.00       0.00          0          0          0          0          0          0          0          0
  random           :       0.00       0.00          0          0          0          0          0          0          0          0
  relpscost        :      21.22       0.00    1926844          0          0          0      42498          0       -489    3846400
Primal Heuristics  :   ExecTime  SetupTime      Calls      Found       Best
  LP solutions     :       0.00          -          -          5          -
  pseudo solutions :       0.00          -          -          0          -
  strong branching :       0.01          -          -          0          -
  SpaGreedy        :     228.47       0.00     418313          2          1
  actconsdiving    :       0.00       0.00          0          0          0
  bound            :       0.00       0.00          0          0          0
  clique           :       0.00       0.00          0          0          0
  coefdiving       :      34.12       0.00      11933          0          0
  crossover        :       1.72       0.00          5          0          0
  dins             :       0.00       0.00          0          0          0
  distributiondivin:      50.27       0.00      11932          0          0
  dualval          :       0.00       0.00          0          0          0
  feaspump         :      18.21       0.00       1918          0          0
  fixandinfer      :       0.00       0.00          0          0          0
  fracdiving       :      34.94       0.00      11932          0          0
  guideddiving     :      35.36       0.00      11933          0          0
  indicator        :       0.45       0.00          0          0          0
  intdiving        :       0.00       0.00          0          0          0
  intshifting      :       0.60       0.00        133          0          0
  linesearchdiving :      33.59       0.00      11933          0          0
  localbranching   :       0.00       0.00          0          0          0
  mutation         :       0.00       0.00          0          0          0
  nlpdiving        :       0.03       0.00          0          0          0
  objpscostdiving  :      18.90       0.00       2698          0          0
  octane           :       0.00       0.00          0          0          0
  ofins            :       0.00       0.00          0          0          0
  oneopt           :       0.51       0.00          8          0          0
  proximity        :       0.00       0.00          0          0          0
  pscostdiving     :      33.79       0.00      11933          1          1
  randrounding     :       1.09       0.00      62603          0          0
  rens             :       0.19       0.00          1          0          0
  reoptsols        :       0.00       0.00          0          0          0
  rins             :      11.37       0.00        147          2          2
  rootsoldiving    :      20.10       0.00       2687          0          0
  rounding         :       0.87       0.00      19480          0          0
  shiftandpropagate:       0.00       0.00          0          0          0
  shifting         :       2.20       0.00       6175          0          0
  simplerounding   :       0.43       0.00          0          0          0
  subnlp           :       0.76       0.00          0          0          0
  trivial          :       0.00       0.00          2          0          0
  trivialnegation  :       0.00       0.00          0          0          0
  trysol           :       0.79       0.00          0          0          0
  twoopt           :       0.00       0.00          0          0          0
  undercover       :       0.00       0.00          1          0          0
  vbounds          :       0.00       0.00          0          0          0
  veclendiving     :      34.75       0.00      11933          0          0
  zeroobj          :       0.00       0.00          0          0          0
  zirounding       :       0.73       0.00       1000          0          0
  other solutions  :          -          -          -          0          -
Diving Statistics  :      Calls      Nodes   LP Iters Backtracks   MinDepth   MaxDepth   AvgDepth  NLeafSols  MinSolDpt  MaxSolDpt  AvgSolDpt
  actconsdiving    :          0          -          -          -          -          -          -          -          -          -          -
  coefdiving       :      11933      69257     551763      15115         15         51       29.3          -          -          -          -
  distributiondivin:      11932      66263     633042      13905         17         50       29.2          -          -          -          -
  fracdiving       :      11932      74246     638167      16615         16         47       29.5          -          -          -          -
  guideddiving     :      11933      82689     666961      14909         18         51       30.5          -          -          -          -
  linesearchdiving :      11933      66980     619396      16913         17         41       28.9          -          -          -          -
  pscostdiving     :      11933      81710     582273      12806         16         56       30.6          -          -          -          -
  veclendiving     :      11933      65430     572274      17497         15         39       28.8          -          -          -          -
LP                 :       Time      Calls Iterations  Iter/call   Iter/sec  Time-0-It Calls-0-It
  primal LP        :       0.00         14          0       0.00          -       0.00         14
  dual LP          :    1488.26    3266820   47810836      17.98   32125.32      78.47     608065
  lex dual LP      :       0.00          0          0       0.00          -
  barrier LP       :       0.00          0          0       0.00          -       0.00          0
  diving/probing LP:     182.06     240870    5787445      24.03   31788.67
  strong branching :       6.50       4889     184854      37.81   28439.08
    (at root node) :          -         19       2548     134.11          -
  conflict analysis:       0.00          0          0       0.00          -
B&B Tree           :
  number of runs   :          1
  nodes            :    3461654 (1923201 internal, 1538453 leaves)
  nodes (total)    :    3461654 (1923201 internal, 1538453 leaves)
  nodes left       :     342943
  max depth        :         41
  max depth (total):         41
  backtracks       :     780722 (22.6%)
  delayed cutoffs  :      37302
  repropagations   :     348816 (5961769 domain reductions, 36320 cutoffs)
  avg switch length:       5.74
  switching time   :     545.12
Root Node          :
  First LP value   : +3.00000000000000e+00
  First LP Iters   :        373 (37300.00 Iter/sec)
  First LP Time    :       0.01
  Final Dual Bound : +1.08090616881582e-02
  Final Root Iters :       3826
Solution           :
  Solutions found  :         10 (9 improvements)
  First Solution   : +1.03489565400000e-03   (in run 1, after 1 nodes, 0.15 seconds, depth 0, found by <SpaGreedy>)
  Gap First Sol.   :   infinite
  Gap Last Sol.    :      66.52 %
  Primal Bound     : +1.50930810500040e-03   (in run 1, after 371333 nodes, 463.47 seconds, depth 37, found by <relaxation>)
  Dual Bound       : +2.27422839656484e-03
  Gap              :      50.68 %
  Avg. Gap         :      39.01 % (140443.81 primal-dual integral)
